26
4
20 24 7 1 19 16 12 5 10 11 14 9 25 22 0 15 21 3 18 13 2 4
3 24 25 0 7 11 1 6 15 23 17 14 5 4 2 9 18 8 10
24 0 13 14 16 5 21 25 9 15 11 22 8 18 17 4 2 3 20 12 6 1 23
11 6 0 13 7 10 23 15 21 25 8 22 3 1 4 17 12 19 5 9 24 16 20
